(declare-datatypes ((_enum_0 0)) (((NULL) (a_A1) (b_B1))))
(declare-datatypes ((_tuple_1 0)) (((_tuple_1 (__f1 Int) (__f2 Int)))))
(declare-datatypes ((_tuple_0 0)) (((_tuple_0 (__f1 _enum_0) (__f2 _tuple_1)))))
(declare-datatypes ((_tuple_2 0)) (((_tuple_2 (__f1 _tuple_0) (__f2 _tuple_0) (__f3 _tuple_0) (__f4 _tuple_0) (__f5 _tuple_0)))))
(declare-fun havoc_91___ucld_87_B_always_NULL_z () Bool)
(declare-fun havoc_92___ucld_86_B_always_NULL_z () Bool)
(declare-fun initial_48___ucld_99___ucld_79___ucld_55__in_bound_input_var_copy2
             ()
             _tuple_0)
(declare-fun initial_44___ucld_84_eq_in_var () _tuple_0)
(declare-fun input_1___ucld_119_main_copy_state_in () Bool)
(declare-fun state_1___ucld_99___ucld_79___ucld_55__in_bound_input_var_copy2
             ()
             _tuple_0)
(declare-fun state_1___ucld_62___ucld_53___done___var_var () Bool)
(declare-fun havoc_179___ucld_87_B_always_NULL_z () Bool)
(declare-fun state_1___ucld_87_B_always_NULL_z () Bool)
(declare-fun initial_31___ucld_105___ucld_68___ucld_50_contents_var_var_copy2
             ()
             _tuple_2)
(declare-fun state_1___ucld_105___ucld_68___ucld_50_contents_var_var_copy2
             ()
             _tuple_2)
(declare-fun initial_35___ucld_94___ucld_85_eq_out_var_copy2 () _tuple_0)
(declare-fun state_1___ucld_94___ucld_85_eq_out_var_copy2 () _tuple_0)
(declare-fun state_1___ucld_82_clock_var () _tuple_1)
(declare-fun initial_32___ucld_113___ucld_65___ucld_51_count_var_var_copy2
             ()
             Int)
(declare-fun state_1___ucld_113___ucld_65___ucld_51_count_var_var_copy2 () Int)
(declare-fun initial_20___ucld_101___ucld_78___ucld_58_count_var_var_copy2
             ()
             Int)
(declare-fun state_1___ucld_101___ucld_78___ucld_58_count_var_var_copy2 () Int)
(declare-fun initial_49___ucld_107___ucld_71_invocation_var_copy2 () _tuple_0)
(declare-fun state_1___ucld_107___ucld_71_invocation_var_copy2 () _tuple_0)
(declare-fun havoc_180___ucld_86_B_always_NULL_z () Bool)
(declare-fun havoc_93___ucld_88_B_always_NULL_pending () Bool)
(declare-fun state_1___ucld_89_B_always_NULL_accept () Bool)
(declare-fun initial_59___ucld_117_diff_copy2 () Int)
(declare-fun initial_39_diff () Int)
(declare-fun state_1___ucld_117_diff_copy2 () Int)
(declare-fun initial_62___ucld_104___ucld_72_eq_in_var_copy2 () _tuple_0)
(declare-fun state_1___ucld_104___ucld_72_eq_in_var_copy2 () _tuple_0)
(declare-fun initial_63___ucld_110___ucld_67___ucld_52___idx___var_var_copy2
             ()
             Int)
(declare-fun state_1___ucld_110___ucld_67___ucld_52___idx___var_var_copy2
             ()
             Int)
(declare-fun state_1_A_to_B () _tuple_0)
(declare-fun state_1___ucld_88_B_always_NULL_pending () Bool)
(declare-fun initial_34___ucld_102___ucld_70_yield_var_copy2 () Bool)
(declare-fun initial_51___ucld_70_yield_var () Bool)
(declare-fun state_1___ucld_102___ucld_70_yield_var_copy2 () Bool)
(declare-fun state_1___ucld_81___ucld_57_contents_var_var () _tuple_2)
(declare-fun state_1_a_b4_b () Bool)
(declare-fun initial_33___ucld_95___ucld_75___ucld_60___done___var_var_copy2
             ()
             Bool)
(declare-fun state_1___ucld_95___ucld_75___ucld_60___done___var_var_copy2
             ()
             Bool)
(declare-fun state_1___ucld_73_eq_out_var () _tuple_0)
(declare-fun state_1___ucld_70_yield_var () Bool)
(declare-fun state_1_diff () Int)
(declare-fun initial_10___ucld_93___ucld_74__in_bound_input_copy2 () _tuple_0)
(declare-fun initial_36_A_to_B () _tuple_0)
(declare-fun state_1___ucld_93___ucld_74__in_bound_input_copy2 () _tuple_0)
(declare-fun state_1___ucld_75___ucld_60___done___var_var () Bool)
(declare-fun initial_27___ucld_90___ucld_84_eq_in_var_copy2 () _tuple_0)
(declare-fun state_1___ucld_90___ucld_84_eq_in_var_copy2 () _tuple_0)
(declare-fun initial_2___ucld_116_a_b4_b_copy2 () Bool)
(declare-fun state_1___ucld_116_a_b4_b_copy2 () Bool)
(declare-fun initial_66___ucld_92___ucld_77___ucld_61___min___var_var_copy2
             ()
             _tuple_0)
(declare-fun initial_13___ucld_77___ucld_61___min___var_var () _tuple_0)
(declare-fun state_1___ucld_92___ucld_77___ucld_61___min___var_var_copy2
             ()
             _tuple_0)
(declare-fun initial_9___ucld_118___ucld_88_B_always_NULL_pending_copy2 () Bool)
(declare-fun state_1___ucld_118___ucld_88_B_always_NULL_pending_copy2 () Bool)
(declare-fun initial_41___ucld_114_A_to_B_copy2 () _tuple_0)
(declare-fun state_1___ucld_114_A_to_B_copy2 () _tuple_0)
(declare-fun initial_57___ucld_103___ucld_62___ucld_53___done___var_var_copy2
             ()
             Bool)
(declare-fun state_1___ucld_103___ucld_62___ucld_53___done___var_var_copy2
             ()
             Bool)
(declare-fun state_1___ucld_74__in_bound_input () _tuple_0)
(declare-fun state_1___ucld_86_B_always_NULL_z () Bool)
(declare-fun havoc_176___ucld_11_modifies___idx__ () Int)
(declare-fun state_1___ucld_67___ucld_52___idx___var_var () Int)
(declare-fun state_1___ucld_69_clock_var () _tuple_1)
(declare-fun initial_15___ucld_91___ucld_76___ucld_56_NULL_EVENT_var_var_copy2
             ()
             _tuple_0)
(declare-fun state_1___ucld_91___ucld_76___ucld_56_NULL_EVENT_var_var_copy2
             ()
             _tuple_0)
(declare-fun initial_5___ucld_100___ucld_80___ucld_59___idx___var_var_copy2
             ()
             Int)
(declare-fun state_1___ucld_100___ucld_80___ucld_59___idx___var_var_copy2
             ()
             Int)
(declare-fun initial_4___ucld_112___ucld_63___ucld_49_NULL_EVENT_var_var_copy2
             ()
             _tuple_0)
(declare-fun state_1___ucld_112___ucld_63___ucld_49_NULL_EVENT_var_var_copy2
             ()
             _tuple_0)
(declare-fun state_1___ucld_122_B_always_NULL_PENDING () Bool)
(declare-fun state_1___ucld_68___ucld_50_contents_var_var () _tuple_2)
(declare-fun havoc_178___ucld_153_blk () Int)
(declare-fun state_1___ucld_80___ucld_59___idx___var_var () Int)
(declare-fun state_1___ucld_65___ucld_51_count_var_var () Int)
(declare-fun initial_23___ucld_98___ucld_82_clock_var_copy2 () _tuple_1)
(declare-fun state_1___ucld_98___ucld_82_clock_var_copy2 () _tuple_1)
(declare-fun initial_8___ucld_106___ucld_73_eq_out_var_copy2 () _tuple_0)
(declare-fun state_1___ucld_106___ucld_73_eq_out_var_copy2 () _tuple_0)
(declare-fun state_1___ucld_123___ucld_89_B_always_NULL_accept_HAS_ACCEPTED
             ()
             Bool)
(declare-fun state_1___ucld_120_main_state_copied () Bool)
(declare-fun state_1___ucld_83_invocation_var () _tuple_0)
(declare-fun state_1___ucld_125_main_is_init () Bool)
(declare-fun state_1___ucld_78___ucld_58_count_var_var () Int)
(declare-fun state_1___ucld_71_invocation_var () _tuple_0)
(declare-fun initial_65___ucld_96___ucld_83_invocation_var_copy2 () _tuple_0)
(declare-fun state_1___ucld_96___ucld_83_invocation_var_copy2 () _tuple_0)
(declare-fun initial_45___ucld_111___ucld_66___ucld_48__in_bound_input_var_copy2
             ()
             _tuple_0)
(declare-fun initial_58___ucld_72_eq_in_var () _tuple_0)
(declare-fun state_1___ucld_111___ucld_66___ucld_48__in_bound_input_var_copy2
             ()
             _tuple_0)
(declare-fun state_1___ucld_79___ucld_55__in_bound_input_var () _tuple_0)
(declare-fun initial_55___ucld_108___ucld_69_clock_var_copy2 () _tuple_1)
(declare-fun state_1___ucld_108___ucld_69_clock_var_copy2 () _tuple_1)
(declare-fun state_1___ucld_84_eq_in_var () _tuple_0)
(declare-fun state_1___ucld_72_eq_in_var () _tuple_0)
(declare-fun initial_16___ucld_115___NULL_copy2 () _tuple_0)
(declare-fun state_1___ucld_115___NULL_copy2 () _tuple_0)
(declare-fun state_1___ucld_124_B_always_NULL_HAS_ACCEPTED_TRACE () Bool)
(declare-fun state_1___ucld_85_eq_out_var () _tuple_0)
(declare-fun state_1___ucld_66___ucld_48__in_bound_input_var () _tuple_0)
(declare-fun initial_38___ucld_109___ucld_64___ucld_54___min___var_var_copy2
             ()
             _tuple_0)
(declare-fun initial_46___ucld_64___ucld_54___min___var_var () _tuple_0)
(declare-fun state_1___ucld_109___ucld_64___ucld_54___min___var_var_copy2
             ()
             _tuple_0)
(declare-fun initial_11___ucld_97___ucld_81___ucld_57_contents_var_var_copy2
             ()
             _tuple_2)
(declare-fun state_1___ucld_97___ucld_81___ucld_57_contents_var_var_copy2
             ()
             _tuple_2)
(assert havoc_91___ucld_87_B_always_NULL_z)
(assert (not havoc_92___ucld_86_B_always_NULL_z))
(assert (= state_1___ucld_99___ucld_79___ucld_55__in_bound_input_var_copy2
   (ite input_1___ucld_119_main_copy_state_in
        initial_44___ucld_84_eq_in_var
        initial_48___ucld_99___ucld_79___ucld_55__in_bound_input_var_copy2)))
(assert (not state_1___ucld_62___ucld_53___done___var_var))
(assert (= state_1___ucld_87_B_always_NULL_z havoc_179___ucld_87_B_always_NULL_z))
(assert (not havoc_179___ucld_87_B_always_NULL_z))
(assert (let ((a!1 (ite input_1___ucld_119_main_copy_state_in
                (_tuple_2 (_tuple_0 NULL (_tuple_1 0 0))
                          (_tuple_0 NULL (_tuple_1 0 0))
                          (_tuple_0 NULL (_tuple_1 0 0))
                          (_tuple_0 NULL (_tuple_1 0 0))
                          (_tuple_0 NULL (_tuple_1 0 0)))
                initial_31___ucld_105___ucld_68___ucld_50_contents_var_var_copy2)))
  (= state_1___ucld_105___ucld_68___ucld_50_contents_var_var_copy2 a!1)))
(assert (= state_1___ucld_94___ucld_85_eq_out_var_copy2
   (ite input_1___ucld_119_main_copy_state_in
        (_tuple_0 NULL (_tuple_1 0 0))
        initial_35___ucld_94___ucld_85_eq_out_var_copy2)))
(assert (= state_1___ucld_82_clock_var (_tuple_1 0 0)))
(assert (= state_1___ucld_113___ucld_65___ucld_51_count_var_var_copy2
   (ite input_1___ucld_119_main_copy_state_in
        0
        initial_32___ucld_113___ucld_65___ucld_51_count_var_var_copy2)))
(assert (= state_1___ucld_101___ucld_78___ucld_58_count_var_var_copy2
   (ite input_1___ucld_119_main_copy_state_in
        0
        initial_20___ucld_101___ucld_78___ucld_58_count_var_var_copy2)))
(assert (= state_1___ucld_107___ucld_71_invocation_var_copy2
   (ite input_1___ucld_119_main_copy_state_in
        (_tuple_0 NULL (_tuple_1 0 0))
        initial_49___ucld_107___ucld_71_invocation_var_copy2)))
(assert (let ((a!1 (and (or havoc_179___ucld_87_B_always_NULL_z
                    (and (or havoc_91___ucld_87_B_always_NULL_z
                             havoc_93___ucld_88_B_always_NULL_pending)
                         (not havoc_92___ucld_86_B_always_NULL_z)))
                (not havoc_180___ucld_86_B_always_NULL_z))))
  (= state_1___ucld_89_B_always_NULL_accept (not a!1))))
(assert (= state_1___ucld_117_diff_copy2
   (ite input_1___ucld_119_main_copy_state_in
        initial_39_diff
        initial_59___ucld_117_diff_copy2)))
(assert (= state_1___ucld_104___ucld_72_eq_in_var_copy2
   (ite input_1___ucld_119_main_copy_state_in
        (_tuple_0 NULL (_tuple_1 0 0))
        initial_62___ucld_104___ucld_72_eq_in_var_copy2)))
(assert (= state_1___ucld_110___ucld_67___ucld_52___idx___var_var_copy2
   (ite input_1___ucld_119_main_copy_state_in
        0
        initial_63___ucld_110___ucld_67___ucld_52___idx___var_var_copy2)))
(assert true)
(assert (= state_1_A_to_B (_tuple_0 NULL (_tuple_1 0 0))))
(assert (let ((a!1 (and (or havoc_179___ucld_87_B_always_NULL_z
                    (and (or havoc_91___ucld_87_B_always_NULL_z
                             havoc_93___ucld_88_B_always_NULL_pending)
                         (not havoc_92___ucld_86_B_always_NULL_z)))
                (not havoc_180___ucld_86_B_always_NULL_z))))
  (= state_1___ucld_88_B_always_NULL_pending a!1)))
(assert true)
(assert (= state_1___ucld_102___ucld_70_yield_var_copy2
   (ite input_1___ucld_119_main_copy_state_in
        initial_51___ucld_70_yield_var
        initial_34___ucld_102___ucld_70_yield_var_copy2)))
(assert (= state_1___ucld_81___ucld_57_contents_var_var
   (_tuple_2 (_tuple_0 NULL (_tuple_1 0 0))
             (_tuple_0 NULL (_tuple_1 0 0))
             (_tuple_0 NULL (_tuple_1 0 0))
             (_tuple_0 NULL (_tuple_1 0 0))
             (_tuple_0 NULL (_tuple_1 0 0)))))
(assert (not state_1_a_b4_b))
(assert (= state_1___ucld_95___ucld_75___ucld_60___done___var_var_copy2
   (and (not input_1___ucld_119_main_copy_state_in)
        initial_33___ucld_95___ucld_75___ucld_60___done___var_var_copy2)))
(assert (= state_1___ucld_73_eq_out_var (_tuple_0 NULL (_tuple_1 0 0))))
(assert (not state_1___ucld_70_yield_var))
(assert (= state_1_diff 0))
(assert (= state_1___ucld_93___ucld_74__in_bound_input_copy2
   (ite input_1___ucld_119_main_copy_state_in
        initial_36_A_to_B
        initial_10___ucld_93___ucld_74__in_bound_input_copy2)))
(assert (not state_1___ucld_75___ucld_60___done___var_var))
(assert (= state_1___ucld_90___ucld_84_eq_in_var_copy2
   (ite input_1___ucld_119_main_copy_state_in
        (_tuple_0 NULL (_tuple_1 0 0))
        initial_27___ucld_90___ucld_84_eq_in_var_copy2)))
(assert (= state_1___ucld_116_a_b4_b_copy2
   (and (not input_1___ucld_119_main_copy_state_in)
        initial_2___ucld_116_a_b4_b_copy2)))
(assert (= state_1___ucld_92___ucld_77___ucld_61___min___var_var_copy2
   (ite input_1___ucld_119_main_copy_state_in
        initial_13___ucld_77___ucld_61___min___var_var
        initial_66___ucld_92___ucld_77___ucld_61___min___var_var_copy2)))
(assert (= state_1___ucld_118___ucld_88_B_always_NULL_pending_copy2
   (ite input_1___ucld_119_main_copy_state_in
        (and (or havoc_91___ucld_87_B_always_NULL_z
                 havoc_93___ucld_88_B_always_NULL_pending)
             (not havoc_92___ucld_86_B_always_NULL_z))
        initial_9___ucld_118___ucld_88_B_always_NULL_pending_copy2)))
(assert (= state_1___ucld_114_A_to_B_copy2
   (ite input_1___ucld_119_main_copy_state_in
        (_tuple_0 NULL (_tuple_1 0 0))
        initial_41___ucld_114_A_to_B_copy2)))
(assert (= state_1___ucld_103___ucld_62___ucld_53___done___var_var_copy2
   (and (not input_1___ucld_119_main_copy_state_in)
        initial_57___ucld_103___ucld_62___ucld_53___done___var_var_copy2)))
(assert (= state_1___ucld_74__in_bound_input (_tuple_0 NULL (_tuple_1 0 0))))
(assert (= state_1___ucld_86_B_always_NULL_z havoc_180___ucld_86_B_always_NULL_z))
(assert (= state_1___ucld_67___ucld_52___idx___var_var
   havoc_176___ucld_11_modifies___idx__))
(assert (= state_1___ucld_69_clock_var (_tuple_1 0 0)))
(assert (= state_1___ucld_91___ucld_76___ucld_56_NULL_EVENT_var_var_copy2
   (ite input_1___ucld_119_main_copy_state_in
        (_tuple_0 NULL (_tuple_1 0 0))
        initial_15___ucld_91___ucld_76___ucld_56_NULL_EVENT_var_var_copy2)))
(assert (= state_1___ucld_100___ucld_80___ucld_59___idx___var_var_copy2
   (ite input_1___ucld_119_main_copy_state_in
        0
        initial_5___ucld_100___ucld_80___ucld_59___idx___var_var_copy2)))
(assert (= state_1___ucld_112___ucld_63___ucld_49_NULL_EVENT_var_var_copy2
   (ite input_1___ucld_119_main_copy_state_in
        (_tuple_0 NULL (_tuple_1 0 0))
        initial_4___ucld_112___ucld_63___ucld_49_NULL_EVENT_var_var_copy2)))
(assert true)
(assert (let ((a!1 (and (or havoc_179___ucld_87_B_always_NULL_z
                    (and (or havoc_91___ucld_87_B_always_NULL_z
                             havoc_93___ucld_88_B_always_NULL_pending)
                         (not havoc_92___ucld_86_B_always_NULL_z)))
                (not havoc_180___ucld_86_B_always_NULL_z))))
  (= state_1___ucld_122_B_always_NULL_PENDING a!1)))
(assert (= state_1___ucld_68___ucld_50_contents_var_var
   (_tuple_2 (_tuple_0 NULL (_tuple_1 0 0))
             (_tuple_0 NULL (_tuple_1 0 0))
             (_tuple_0 NULL (_tuple_1 0 0))
             (_tuple_0 NULL (_tuple_1 0 0))
             (_tuple_0 NULL (_tuple_1 0 0)))))
(assert (= state_1___ucld_80___ucld_59___idx___var_var havoc_178___ucld_153_blk))
(assert (= state_1___ucld_65___ucld_51_count_var_var 0))
(assert (= state_1___ucld_98___ucld_82_clock_var_copy2
   (ite input_1___ucld_119_main_copy_state_in
        (_tuple_1 0 0)
        initial_23___ucld_98___ucld_82_clock_var_copy2)))
(assert (= state_1___ucld_106___ucld_73_eq_out_var_copy2
   (ite input_1___ucld_119_main_copy_state_in
        (_tuple_0 NULL (_tuple_1 0 0))
        initial_8___ucld_106___ucld_73_eq_out_var_copy2)))
(assert (let ((a!1 (and (or havoc_179___ucld_87_B_always_NULL_z
                    (and (or havoc_91___ucld_87_B_always_NULL_z
                             havoc_93___ucld_88_B_always_NULL_pending)
                         (not havoc_92___ucld_86_B_always_NULL_z)))
                (not havoc_180___ucld_86_B_always_NULL_z))))
  (= state_1___ucld_123___ucld_89_B_always_NULL_accept_HAS_ACCEPTED
     (and (not a!1) input_1___ucld_119_main_copy_state_in))))
(assert (= state_1___ucld_120_main_state_copied input_1___ucld_119_main_copy_state_in))
(assert (= state_1___ucld_83_invocation_var (_tuple_0 NULL (_tuple_1 0 0))))
(assert (not state_1___ucld_125_main_is_init))
(assert (= state_1___ucld_78___ucld_58_count_var_var 0))
(assert (= state_1___ucld_71_invocation_var (_tuple_0 NULL (_tuple_1 0 0))))
(assert (= state_1___ucld_96___ucld_83_invocation_var_copy2
   (ite input_1___ucld_119_main_copy_state_in
        (_tuple_0 NULL (_tuple_1 0 0))
        initial_65___ucld_96___ucld_83_invocation_var_copy2)))
(assert (= state_1___ucld_111___ucld_66___ucld_48__in_bound_input_var_copy2
   (ite input_1___ucld_119_main_copy_state_in
        initial_58___ucld_72_eq_in_var
        initial_45___ucld_111___ucld_66___ucld_48__in_bound_input_var_copy2)))
(assert (= state_1___ucld_79___ucld_55__in_bound_input_var
   (_tuple_0 NULL (_tuple_1 0 0))))
(assert (= state_1___ucld_108___ucld_69_clock_var_copy2
   (ite input_1___ucld_119_main_copy_state_in
        (_tuple_1 0 0)
        initial_55___ucld_108___ucld_69_clock_var_copy2)))
(assert (= state_1___ucld_84_eq_in_var (_tuple_0 NULL (_tuple_1 0 0))))
(assert (= state_1___ucld_72_eq_in_var
   (ite initial_51___ucld_70_yield_var
        (_tuple_0 NULL (_tuple_1 0 0))
        (_tuple_0 a_A1 (_tuple_1 3 0)))))
(assert (= state_1___ucld_115___NULL_copy2
   (ite input_1___ucld_119_main_copy_state_in
        (_tuple_0 NULL (_tuple_1 0 0))
        initial_16___ucld_115___NULL_copy2)))
(assert (let ((a!1 (and (or havoc_179___ucld_87_B_always_NULL_z
                    (and (or havoc_91___ucld_87_B_always_NULL_z
                             havoc_93___ucld_88_B_always_NULL_pending)
                         (not havoc_92___ucld_86_B_always_NULL_z)))
                (not havoc_180___ucld_86_B_always_NULL_z))))
  (= state_1___ucld_124_B_always_NULL_HAS_ACCEPTED_TRACE
     (and (not a!1) input_1___ucld_119_main_copy_state_in))))
(assert (= state_1___ucld_85_eq_out_var (_tuple_0 NULL (_tuple_1 0 0))))
(assert true)
(assert (= state_1___ucld_66___ucld_48__in_bound_input_var
   (_tuple_0 NULL (_tuple_1 0 0))))
(assert (= state_1___ucld_109___ucld_64___ucld_54___min___var_var_copy2
   (ite input_1___ucld_119_main_copy_state_in
        initial_46___ucld_64___ucld_54___min___var_var
        initial_38___ucld_109___ucld_64___ucld_54___min___var_var_copy2)))
(assert (not havoc_180___ucld_86_B_always_NULL_z))
(assert (let ((a!1 (ite input_1___ucld_119_main_copy_state_in
                (_tuple_2 (_tuple_0 NULL (_tuple_1 0 0))
                          (_tuple_0 NULL (_tuple_1 0 0))
                          (_tuple_0 NULL (_tuple_1 0 0))
                          (_tuple_0 NULL (_tuple_1 0 0))
                          (_tuple_0 NULL (_tuple_1 0 0)))
                initial_11___ucld_97___ucld_81___ucld_57_contents_var_var_copy2)))
  (= state_1___ucld_97___ucld_81___ucld_57_contents_var_var_copy2 a!1)))
(assert (not state_1___ucld_122_B_always_NULL_PENDING))


(check-sat)
(get-info :all-statistics)
